mod/elf.nl
g3 2 1 0	# problem elf
 54 38 1 0 6	# vars, constraints, objectives, ranges, eqns
 27 0	# nonlinear constraints, objectives
 0 0	# network constraints: nonlinear, linear
 6 0 0	# nonlinear vars in constraints, objectives, both
 0 0 0 1	# linear network variables; functions; arith, flags
 24 0 0 0 0	# discrete variables: binary, integer, nonlinear (b,c,o)
 153 24	# nonzeros in Jacobian, gradients
 3 3	# max name lengths: constraints, variables
 0 0 0 0 0	# common exprs: b,c,o,c1,o1
C0
o16
o5
o1
n8
v0
n2
C1
o16
o5
o1
n8
v1
n2
C2
o16
o5
o1
n8
v2
n2
C3
o16
o5
o1
n8.5
v0
n2
C4
o16
o5
o1
n8.5
v1
n2
C5
o16
o5
o1
n8.5
v2
n2
C6
o16
o5
o1
n8.3
v0
n2
C7
o16
o5
o1
n8.3
v1
n2
C8
o16
o5
o1
n8.3
v2
n2
C9
o16
o5
o1
n8.7
v0
n2
C10
o16
o5
o1
n8.7
v1
n2
C11
o16
o5
o1
n8.7
v2
n2
C12
o16
o5
o1
n8.6
v0
n2
C13
o16
o5
o1
n8.6
v1
n2
C14
o16
o5
o1
n8.6
v2
n2
C15
o16
o5
o1
n9
v0
n2
C16
o16
o5
o1
n9
v1
n2
C17
o16
o5
o1
n9
v2
n2
C18
o16
o5
o1
n9.2
v0
n2
C19
o16
o5
o1
n9.2
v1
n2
C20
o16
o5
o1
n9.2
v2
n2
C21
o16
o5
o1
n9.5
v0
n2
C22
o16
o5
o1
n9.5
v1
n2
C23
o16
o5
o1
n9.5
v2
n2
C24
o2
v3
v0
C25
o2
v4
v1
C26
o2
v5
v2
C27
n0
C28
n0
C29
n0
C30
n0
C31
n0
C32
n0
C33
n0
C34
n0
C35
n0
C36
n0
C37
n0
O0 0
n0
x23
30 0.33
31 0.33
32 0.33
33 0.33
34 0.33
35 0.33
36 0.33
37 0.33
38 0.33
39 0.33
40 0.33
41 0.33
42 0.33
43 0.33
44 0.33
45 0.33
46 0.33
47 0.33
48 0.33
49 0.33
50 0.33
51 0.33
52 0.33
r
2 -100
2 -100
2 -100
2 -100
2 -100
2 -100
2 -100
2 -100
2 -100
2 -100
2 -100
2 -100
2 -100
2 -100
2 -100
2 -100
2 -100
2 -100
2 -100
2 -100
2 -100
2 -100
2 -100
2 -100
4 0
4 0
4 0
2 1
2 1
2 1
2 1
2 1
2 1
2 1
2 1
4 0
4 0
4 0
b
2 0
2 0
2 0
2 0
2 0
2 0
2 0
2 0
2 0
2 0
2 0
2 0
2 0
2 0
2 0
2 0
2 0
2 0
2 0
2 0
2 0
2 0
2 0
2 0
2 0
2 0
2 0
2 0
2 0
2 0
0 0 1
0 0 1
0 0 1
0 0 1
0 0 1
0 0 1
0 0 1
0 0 1
0 0 1
0 0 1
0 0 1
0 0 1
0 0 1
0 0 1
0 0 1
0 0 1
0 0 1
0 0 1
0 0 1
0 0 1
0 0 1
0 0 1
0 0 1
0 0 1
k53
9
18
27
29
31
33
34
35
36
37
38
39
40
41
42
43
44
45
46
47
48
49
50
51
52
53
54
55
56
57
61
65
69
73
77
81
85
89
93
97
101
105
109
113
117
121
125
129
133
137
141
145
149
J0 3
0 0
6 1
30 -100
J1 3
1 0
7 1
31 -100
J2 3
2 0
8 1
32 -100
J3 3
0 0
9 1
33 -100
J4 3
1 0
10 1
34 -100
J5 3
2 0
11 1
35 -100
J6 3
0 0
12 1
36 -100
J7 3
1 0
13 1
37 -100
J8 3
2 0
14 1
38 -100
J9 3
0 0
15 1
39 -100
J10 3
1 0
16 1
40 -100
J11 3
2 0
17 1
41 -100
J12 3
0 0
18 1
42 -100
J13 3
1 0
19 1
43 -100
J14 3
2 0
20 1
44 -100
J15 3
0 0
21 1
45 -100
J16 3
1 0
22 1
46 -100
J17 3
2 0
23 1
47 -100
J18 3
0 0
24 1
48 -100
J19 3
1 0
25 1
49 -100
J20 3
2 0
26 1
50 -100
J21 3
0 0
27 1
51 -100
J22 3
1 0
28 1
52 -100
J23 3
2 0
29 1
53 -100
J24 10
0 0
3 0
30 -8
33 -8.5
36 -8.3
39 -8.7
42 -8.6
45 -9
48 -9.2
51 -9.5
J25 10
1 0
4 0
31 -8
34 -8.5
37 -8.3
40 -8.7
43 -8.6
46 -9
49 -9.2
52 -9.5
J26 10
2 0
5 0
32 -8
35 -8.5
38 -8.3
41 -8.7
44 -8.6
47 -9
50 -9.2
53 -9.5
J27 3
30 1
31 1
32 1
J28 3
33 1
34 1
35 1
J29 3
36 1
37 1
38 1
J30 3
39 1
40 1
41 1
J31 3
42 1
43 1
44 1
J32 3
45 1
46 1
47 1
J33 3
48 1
49 1
50 1
J34 3
51 1
52 1
53 1
J35 9
3 1
30 -1
33 -1
36 -1
39 -1
42 -1
45 -1
48 -1
51 -1
J36 9
4 1
31 -1
34 -1
37 -1
40 -1
43 -1
46 -1
49 -1
52 -1
J37 9
5 1
32 -1
35 -1
38 -1
41 -1
44 -1
47 -1
50 -1
53 -1
G0 24
6 1
7 1
8 1
9 1
10 1
11 1
12 1
13 1
14 1
15 1
16 1
17 1
18 1
19 1
20 1
21 1
22 1
23 1
24 1
25 1
26 1
27 1
28 1
29 1
