mod/elf.sol

Options
3
2
1
0
38
0
54
54
8.599999999999998
9.233333333333333
8.15
3
3
2
0
0
0.022499999999993747
0.00999999999999603
0
0
0
0
0.022499999999993747
0.010000000000001725
0
0
0
0
0
0
0.054444444444454156
0
0
0.0011111111111006267
0
0
0.07111111111112844
0
0
0
1
1
0
0
0
0
1
1
0
0
1
0
0
0
1
0
0
1
0
0
1
0
